CO2_Fe-Pn_on_Cu_3_layer                 
   1.00000000000000     
    20.4477996825999995    0.0000000000000000    0.0000000000000000
   -10.2238998412999997   17.7083139765999995    0.0000000000000000
     0.0000000000000000    0.0000000000000000   34.1739006042000000
   Cu   C    N    H    Fe   O 
   192    21     4    12     1     2
Selective dynamics
Direct
  0.0833299980000035  0.1666699949999995  0.0000000000000000   F   F   F
  0.0000000000000000  0.0000000000000000  0.0610699989999972   F   F   F
  0.1664769164321029  0.0831865738924122  0.1210540849805639   T   T   T
  0.0833299980000035  0.0416699980000033  0.0000000000000000   F   F   F
  0.0000000000000000  0.1250000000000000  0.0610699989999972   F   F   F
  0.1654441464759344  0.2070810482357359  0.1209178257674210   T   T   T
  0.2083300050000005  0.0416699980000033  0.0000000000000000   F   F   F
  0.1250000000000000  0.1250000000000000  0.0610699989999972   F   F   F
  0.0408943728084949  0.2076070801768566  0.1210322685973679   T   T   T
  0.2083300050000005  0.1666699949999995  0.0000000000000000   F   F   F
  0.1250000000000000  0.0000000000000000  0.0610699989999972   F   F   F
  0.0415607236428386  0.0831729980142626  0.1210349252734773   T   T   T
  0.3333300050000005  0.1666699949999995  0.0000000000000000   F   F   F
  0.2500000000000000  0.0000000000000000  0.0610699989999972   F   F   F
  0.4167162756368157  0.0834189112015409  0.1211169890264756   T   T   T
  0.3333300050000005  0.0416699980000033  0.0000000000000000   F   F   F
  0.2500000000000000  0.1250000000000000  0.0610699989999972   F   F   F
  0.4161840796363236  0.2073073968646426  0.1205428306264196   T   T   T
  0.4583300050000005  0.0416699980000033  0.0000000000000000   F   F   F
  0.3750000000000000  0.1250000000000000  0.0610699989999972   F   F   F
  0.2906322346725787  0.2073040211684187  0.1211562087241163   T   T   T
  0.4583300050000005  0.1666699949999995  0.0000000000000000   F   F   F
  0.3750000000000000  0.0000000000000000  0.0610699989999972   F   F   F
  0.2916735051719286  0.0831997899309229  0.1210272404911024   T   T   T
  0.5833299760000017  0.1666699949999995  0.0000000000000000   F   F   F
  0.5000000000000000  0.0000000000000000  0.0610699989999972   F   F   F
  0.6666250880853681  0.0832769172089556  0.1209064314956478   T   T   T
  0.5833299760000017  0.0416699980000033  0.0000000000000000   F   F   F
  0.5000000000000000  0.1250000000000000  0.0610699989999972   F   F   F
  0.6666699151010533  0.2077572414461386  0.1209813677008356   T   T   T
  0.7083299760000017  0.0416699980000033  0.0000000000000000   F   F   F
  0.6250000000000000  0.1250000000000000  0.0610699989999972   F   F   F
  0.5415224367050513  0.2077367455890311  0.1209014795545187   T   T   T
  0.7083299760000017  0.1666699949999995  0.0000000000000000   F   F   F
  0.6250000000000000  0.0000000000000000  0.0610699989999972   F   F   F
  0.5416519678154472  0.0834423706208440  0.1211014780360671   T   T   T
  0.8333299760000017  0.1666699949999995  0.0000000000000000   F   F   F
  0.7500000000000000  0.0000000000000000  0.0610699989999972   F   F   F
  0.9164338696884329  0.0831187931581638  0.1209330209494439   T   T   T
  0.8333299760000017  0.0416699980000033  0.0000000000000000   F   F   F
  0.7500000000000000  0.1250000000000000  0.0610699989999972   F   F   F
  0.9163252894061884  0.2080111170267926  0.1208632941848578   T   T   T
  0.9583299760000017  0.0416699980000033  0.0000000000000000   F   F   F
  0.8750000000000000  0.1250000000000000  0.0610699989999972   F   F   F
  0.7916555304318820  0.2080819339243973  0.1208285227874697   T   T   T
  0.9583299760000017  0.1666699949999995  0.0000000000000000   F   F   F
  0.8750000000000000  0.0000000000000000  0.0610699989999972   F   F   F
  0.7916138046928936  0.0832411706679679  0.1209361403652665   T   T   T
  0.0833299980000035  0.4166699949999995  0.0000000000000000   F   F   F
  0.0000000000000000  0.2500000000000000  0.0610699989999972   F   F   F
  0.1635966003961613  0.3311011312253953  0.1206216951976415   T   T   T
  0.0833299980000035  0.2916699949999995  0.0000000000000000   F   F   F
  0.0000000000000000  0.3750000000000000  0.0610699989999972   F   F   F
  0.1639993542745088  0.4571210788929605  0.1205645722729543   T   T   T
  0.2083300050000005  0.2916699949999995  0.0000000000000000   F   F   F
  0.1250000000000000  0.3750000000000000  0.0610699989999972   F   F   F
  0.0412379646223968  0.4581820661815854  0.1211352430147770   T   T   T
  0.2083300050000005  0.4166699949999995  0.0000000000000000   F   F   F
  0.1250000000000000  0.2500000000000000  0.0610699989999972   F   F   F
  0.0406836476411527  0.3327571622980514  0.1210950280127321   T   T   T
  0.3333300050000005  0.4166699949999995  0.0000000000000000   F   F   F
  0.2500000000000000  0.2500000000000000  0.0610699989999972   F   F   F
  0.4155614735903796  0.3320763738543278  0.1197615332644730   T   T   T
  0.3333300050000005  0.2916699949999995  0.0000000000000000   F   F   F
  0.2500000000000000  0.3750000000000000  0.0610699989999972   F   F   F
  0.4151998985704353  0.4579349963909110  0.1197361755253183   T   T   T
  0.4583300050000005  0.2916699949999995  0.0000000000000000   F   F   F
  0.3750000000000000  0.3750000000000000  0.0610699989999972   F   F   F
  0.2871230141703833  0.4550314064529744  0.1202925197375464   T   T   T
  0.4583300050000005  0.4166699949999995  0.0000000000000000   F   F   F
  0.3750000000000000  0.2500000000000000  0.0610699989999972   F   F   F
  0.2888570027674291  0.3314247624565212  0.1211138683816770   T   T   T
  0.5833299760000017  0.4166699949999995  0.0000000000000000   F   F   F
  0.5000000000000000  0.2500000000000000  0.0610699989999972   F   F   F
  0.6672298463504092  0.3314658100545813  0.1201997412590288   T   T   T
  0.5833299760000017  0.2916699949999995  0.0000000000000000   F   F   F
  0.5000000000000000  0.3750000000000000  0.0610699989999972   F   F   F
  0.6707648736046607  0.4569574486713321  0.1226248228989490   T   T   T
  0.7083299760000017  0.2916699949999995  0.0000000000000000   F   F   F
  0.6250000000000000  0.3750000000000000  0.0610699989999972   F   F   F
  0.5394355178859058  0.4600652819091167  0.1208495155478388   T   T   T
  0.7083299760000017  0.4166699949999995  0.0000000000000000   F   F   F
  0.6250000000000000  0.2500000000000000  0.0610699989999972   F   F   F
  0.5410327100673911  0.3323859313795481  0.1207053617992031   T   T   T
  0.8333299760000017  0.4166699949999995  0.0000000000000000   F   F   F
  0.7500000000000000  0.2500000000000000  0.0610699989999972   F   F   F
  0.9165284746994473  0.3332185880184255  0.1209351836116923   T   T   T
  0.8333299760000017  0.2916699949999995  0.0000000000000000   F   F   F
  0.7500000000000000  0.3750000000000000  0.0610699989999972   F   F   F
  0.9174786707437192  0.4583501742171023  0.1211628213065339   T   T   T
  0.9583299760000017  0.2916699949999995  0.0000000000000000   F   F   F
  0.8750000000000000  0.3750000000000000  0.0610699989999972   F   F   F
  0.7946474239004147  0.4580829967370761  0.1203289060988766   T   T   T
  0.9583299760000017  0.4166699949999995  0.0000000000000000   F   F   F
  0.8750000000000000  0.2500000000000000  0.0610699989999972   F   F   F
  0.7919747404948723  0.3328683235278334  0.1210573426268269   T   T   T
  0.0833299980000035  0.6666700239999983  0.0000000000000000   F   F   F
  0.0000000000000000  0.5000000000000000  0.0610699989999972   F   F   F
  0.1656743653946862  0.5832390449538067  0.1208371549009186   T   T   T
  0.0833299980000035  0.5416700239999983  0.0000000000000000   F   F   F
  0.0000000000000000  0.6250000000000000  0.0610699989999972   F   F   F
  0.1665425930730180  0.7083426674717472  0.1209306955284859   T   T   T
  0.2083300050000005  0.5416700239999983  0.0000000000000000   F   F   F
  0.1250000000000000  0.6250000000000000  0.0610699989999972   F   F   F
  0.0421019696292007  0.7084491008466784  0.1210382081502743   T   T   T
  0.2083300050000005  0.6666700239999983  0.0000000000000000   F   F   F
  0.1250000000000000  0.5000000000000000  0.0610699989999972   F   F   F
  0.0417677007064654  0.5833869203359967  0.1211243618669968   T   T   T
  0.3333300050000005  0.6666700239999983  0.0000000000000000   F   F   F
  0.2500000000000000  0.5000000000000000  0.0610699989999972   F   F   F
  0.4145794623411589  0.5847335096506043  0.1196377205869084   T   T   T
  0.3333300050000005  0.5416700239999983  0.0000000000000000   F   F   F
  0.2500000000000000  0.6250000000000000  0.0610699989999972   F   F   F
  0.4157664384188422  0.7106809058156500  0.1199122923873546   T   T   T
  0.4583300050000005  0.5416700239999983  0.0000000000000000   F   F   F
  0.3750000000000000  0.6250000000000000  0.0610699989999972   F   F   F
  0.2910646551050746  0.7085429722699672  0.1207928442489745   T   T   T
  0.4583300050000005  0.6666700239999983  0.0000000000000000   F   F   F
  0.3750000000000000  0.5000000000000000  0.0610699989999972   F   F   F
  0.2892980735851793  0.5826762356551924  0.1220136894821380   T   T   T
  0.5833299760000017  0.6666700239999983  0.0000000000000000   F   F   F
  0.5000000000000000  0.5000000000000000  0.0610699989999972   F   F   F
  0.6711776901052176  0.5858110673844976  0.1210607416629159   T   T   T
  0.5833299760000017  0.5416700239999983  0.0000000000000000   F   F   F
  0.5000000000000000  0.6250000000000000  0.0610699989999972   F   F   F
  0.6699305086501397  0.7119342507603079  0.1210113185718100   T   T   T
  0.7083299760000017  0.5416700239999983  0.0000000000000000   F   F   F
  0.6250000000000000  0.6250000000000000  0.0610699989999972   F   F   F
  0.5413049173225701  0.7114272001792941  0.1206818817589195   T   T   T
  0.7083299760000017  0.6666700239999983  0.0000000000000000   F   F   F
  0.6250000000000000  0.5000000000000000  0.0610699989999972   F   F   F
  0.5391451259267441  0.5833283405939724  0.1210568386307855   T   T   T
  0.8333299760000017  0.6666700239999983  0.0000000000000000   F   F   F
  0.7500000000000000  0.5000000000000000  0.0610699989999972   F   F   F
  0.9179748182452556  0.5836728266959597  0.1211027870902370   T   T   T
  0.8333299760000017  0.5416700239999983  0.0000000000000000   F   F   F
  0.7500000000000000  0.6250000000000000  0.0610699989999972   F   F   F
  0.9180385722079691  0.7090808131867377  0.1211129523150802   T   T   T
  0.9583299760000017  0.5416700239999983  0.0000000000000000   F   F   F
  0.8750000000000000  0.6250000000000000  0.0610699989999972   F   F   F
  0.7951802009211875  0.7109912750062506  0.1200245297799256   T   T   T
  0.9583299760000017  0.6666700239999983  0.0000000000000000   F   F   F
  0.8750000000000000  0.5000000000000000  0.0610699989999972   F   F   F
  0.7955017325205489  0.5846685130424660  0.1197142083287162   T   T   T
  0.0833299980000035  0.9166700239999983  0.0000000000000000   F   F   F
  0.0000000000000000  0.7500000000000000  0.0610699989999972   F   F   F
  0.1667585802370226  0.8334918136552858  0.1209432662919525   T   T   T
  0.0833299980000035  0.7916700239999983  0.0000000000000000   F   F   F
  0.0000000000000000  0.8750000000000000  0.0610699989999972   F   F   F
  0.1668184158513952  0.9585867208965482  0.1209619484165430   T   T   T
  0.2083300050000005  0.7916700239999983  0.0000000000000000   F   F   F
  0.1250000000000000  0.8750000000000000  0.0610699989999972   F   F   F
  0.0420698060071416  0.9587407773341141  0.1210546792086333   T   T   T
  0.2083300050000005  0.9166700239999983  0.0000000000000000   F   F   F
  0.1250000000000000  0.7500000000000000  0.0610699989999972   F   F   F
  0.0421791488110301  0.8338263759596742  0.1209223469858216   T   T   T
  0.3333300050000005  0.9166700239999983  0.0000000000000000   F   F   F
  0.2500000000000000  0.7500000000000000  0.0610699989999972   F   F   F
  0.4166378591210886  0.8342877866563683  0.1211486357860210   T   T   T
  0.3333300050000005  0.7916700239999983  0.0000000000000000   F   F   F
  0.2500000000000000  0.8750000000000000  0.0610699989999972   F   F   F
  0.4168544937156327  0.9588225901228427  0.1209774742450946   T   T   T
  0.4583300050000005  0.7916700239999983  0.0000000000000000   F   F   F
  0.3750000000000000  0.8750000000000000  0.0610699989999972   F   F   F
  0.2917169731976301  0.9584877335843984  0.1209393489866102   T   T   T
  0.4583300050000005  0.9166700239999983  0.0000000000000000   F   F   F
  0.3750000000000000  0.7500000000000000  0.0610699989999972   F   F   F
  0.2915770419716353  0.8335246561942924  0.1208805617937685   T   T   T
  0.5833299760000017  0.9166700239999983  0.0000000000000000   F   F   F
  0.5000000000000000  0.7500000000000000  0.0610699989999972   F   F   F
  0.6673929724635244  0.8353186951379001  0.1204717236509154   T   T   T
  0.5833299760000017  0.7916700239999983  0.0000000000000000   F   F   F
  0.5000000000000000  0.8750000000000000  0.0610699989999972   F   F   F
  0.6668156190878278  0.9588942442603496  0.1211159638778554   T   T   T
  0.7083299760000017  0.7916700239999983  0.0000000000000000   F   F   F
  0.6250000000000000  0.8750000000000000  0.0610699989999972   F   F   F
  0.5418029246019813  0.9590697134589732  0.1211538074758565   T   T   T
  0.7083299760000017  0.9166700239999983  0.0000000000000000   F   F   F
  0.6250000000000000  0.7500000000000000  0.0610699989999972   F   F   F
  0.5418556675829791  0.8356636418390266  0.1207444487459810   T   T   T
  0.8333299760000017  0.9166700239999983  0.0000000000000000   F   F   F
  0.7500000000000000  0.7500000000000000  0.0610699989999972   F   F   F
  0.9178978191262033  0.8343882513796856  0.1211286402701646   T   T   T
  0.8333299760000017  0.7916700239999983  0.0000000000000000   F   F   F
  0.7500000000000000  0.8750000000000000  0.0610699989999972   F   F   F
  0.9171523011183780  0.9588622048548885  0.1210231364103294   T   T   T
  0.9583299760000017  0.7916700239999983  0.0000000000000000   F   F   F
  0.8750000000000000  0.8750000000000000  0.0610699989999972   F   F   F
  0.7918986373893304  0.9587622850104225  0.1211033170523237   T   T   T
  0.9583299760000017  0.9166700239999983  0.0000000000000000   F   F   F
  0.8750000000000000  0.7500000000000000  0.0610699989999972   F   F   F
  0.7937299470954287  0.8354106312965044  0.1207435387396316   T   T   T
  0.5614393097737604  0.4048870077833087  0.1913494700725096   T   T   T
  0.6361126319558252  0.4147079427881266  0.1910025826609569   T   T   T
  0.6864151451104377  0.4917258287267572  0.1877802840389862   T   T   T
  0.6413153731069201  0.5279159658765735  0.1859442664481890   T   T   T
  0.3160909130779714  0.4617064878507833  0.1948108530899333   T   T   T
  0.2718144383971364  0.4982844418665238  0.1969523552539911   T   T   T
  0.3215103379888973  0.5749505707727138  0.1950457174946223   T   T   T
  0.3958642562248329  0.5840486100795417  0.1917786401093409   T   T   T
  0.6295362961190705  0.6422158067766901  0.1895049282894163   T   T   T
  0.6616496664012672  0.7219049989757877  0.1946121579838547   T   T   T
  0.6018434943172579  0.7357276072810350  0.1954524404879123   T   T   T
  0.5343461499158764  0.6644011920433712  0.1908721450737474   T   T   T
  0.3293834284452544  0.3494060805515957  0.2015822180759201   T   T   T
  0.2987652516313304  0.2705104027148764  0.2101954012296048   T   T   T
  0.3580126081510713  0.2575149496136717  0.2106367917226706   T   T   T
  0.4247131051610964  0.3282642440709154  0.2018878775914104   T   T   T
  0.6722780557378982  0.6060557357137739  0.1870754176400879   T   T   T
  0.4960805559462500  0.3364447734648977  0.1982059846321533   T   T   T
  0.2862110394646322  0.3839737000351278  0.1986754846506997   T   T   T
  0.4618322554281704  0.6541994182943540  0.1914234079666457   T   T   T
  0.4804203856020379  0.4952437308005386  0.2806427857224918   T   T   T
  0.5636075468318538  0.4741735837348315  0.1864015435383024   T   T   T
  0.3930349513451716  0.5141976676104036  0.1917378926618341   T   T   T
  0.5507253164762744  0.6054358079572566  0.1867242628205261   T   T   T
  0.4076998499403928  0.3858367242738865  0.1969396205962539   T   T   T
  0.6490477271025696  0.3702497068346844  0.1974248006805652   T   T   T
  0.7471028889350322  0.5215994647957700  0.1929398700996856   T   T   T
  0.2110231708105559  0.4691186248587940  0.2016793762814757   T   T   T
  0.3100566184673212  0.6210345108629127  0.1994557865765287   T   T   T
  0.7210549644781850  0.7613845238224002  0.2001795921538658   T   T   T
  0.6033866527339171  0.7888866924684947  0.2010335547910387   T   T   T
  0.2391868490020883  0.2309924848684659  0.2155101754835371   T   T   T
  0.3576932819400511  0.2049709674756883  0.2163330639287153   T   T   T
  0.7329519279656083  0.6404664275342071  0.1923595346134448   T   T   T
  0.5018407864802512  0.2868151669336854  0.2032652765655243   T   T   T
  0.2252567590826047  0.3490859095282701  0.2028323583955114   T   T   T
  0.4561976674205681  0.7043274798794599  0.1949090146991637   T   T   T
  0.4776099473669930  0.4936812518138538  0.1850355853104517   T   T   T
  0.5462771793212013  0.5238163930088575  0.2767720759760266   T   T   T
  0.4148091032901533  0.4668754099244197  0.2851051204200630   T   T   T
 
  0.00000000E+00  0.00000000E+00  0.00000000E+00
  0.00000000E+00  0.00000000E+00  0.00000000E+00
  0.00000000E+00  0.00000000E+00  0.00000000E+00
  0.00000000E+00  0.00000000E+00  0.00000000E+00
  0.00000000E+00  0.00000000E+00  0.00000000E+00
  0.00000000E+00  0.00000000E+00  0.00000000E+00
  0.00000000E+00  0.00000000E+00  0.00000000E+00
  0.00000000E+00  0.00000000E+00  0.00000000E+00
  0.00000000E+00  0.00000000E+00  0.00000000E+00
  0.00000000E+00  0.00000000E+00  0.00000000E+00
  0.00000000E+00  0.00000000E+00  0.00000000E+00
  0.00000000E+00  0.00000000E+00  0.00000000E+00
  0.00000000E+00  0.00000000E+00  0.00000000E+00
  0.00000000E+00  0.00000000E+00  0.00000000E+00
  0.00000000E+00  0.00000000E+00  0.00000000E+00
  0.00000000E+00  0.00000000E+00  0.00000000E+00
  0.00000000E+00  0.00000000E+00  0.00000000E+00
  0.00000000E+00  0.00000000E+00  0.00000000E+00
  0.00000000E+00  0.00000000E+00  0.00000000E+00
  0.00000000E+00  0.00000000E+00  0.00000000E+00
  0.00000000E+00  0.00000000E+00  0.00000000E+00
  0.00000000E+00  0.00000000E+00  0.00000000E+00
  0.00000000E+00  0.00000000E+00  0.00000000E+00
  0.00000000E+00  0.00000000E+00  0.00000000E+00
  0.00000000E+00  0.00000000E+00  0.00000000E+00
  0.00000000E+00  0.00000000E+00  0.00000000E+00
  0.00000000E+00  0.00000000E+00  0.00000000E+00
  0.00000000E+00  0.00000000E+00  0.00000000E+00
  0.00000000E+00  0.00000000E+00  0.00000000E+00
  0.00000000E+00  0.00000000E+00  0.00000000E+00
  0.00000000E+00  0.00000000E+00  0.00000000E+00
  0.00000000E+00  0.00000000E+00  0.00000000E+00
  0.00000000E+00  0.00000000E+00  0.00000000E+00
  0.00000000E+00  0.00000000E+00  0.00000000E+00
  0.00000000E+00  0.00000000E+00  0.00000000E+00
  0.00000000E+00  0.00000000E+00  0.00000000E+00
  0.00000000E+00  0.00000000E+00  0.00000000E+00
  0.00000000E+00  0.00000000E+00  0.00000000E+00
  0.00000000E+00  0.00000000E+00  0.00000000E+00
  0.00000000E+00  0.00000000E+00  0.00000000E+00
  0.00000000E+00  0.00000000E+00  0.00000000E+00
  0.00000000E+00  0.00000000E+00  0.00000000E+00
  0.00000000E+00  0.00000000E+00  0.00000000E+00
  0.00000000E+00  0.00000000E+00  0.00000000E+00
  0.00000000E+00  0.00000000E+00  0.00000000E+00
  0.00000000E+00  0.00000000E+00  0.00000000E+00
  0.00000000E+00  0.00000000E+00  0.00000000E+00
  0.00000000E+00  0.00000000E+00  0.00000000E+00
  0.00000000E+00  0.00000000E+00  0.00000000E+00
  0.00000000E+00  0.00000000E+00  0.00000000E+00
  0.00000000E+00  0.00000000E+00  0.00000000E+00
  0.00000000E+00  0.00000000E+00  0.00000000E+00
  0.00000000E+00  0.00000000E+00  0.00000000E+00
  0.00000000E+00  0.00000000E+00  0.00000000E+00
  0.00000000E+00  0.00000000E+00  0.00000000E+00
  0.00000000E+00  0.00000000E+00  0.00000000E+00
  0.00000000E+00  0.00000000E+00  0.00000000E+00
  0.00000000E+00  0.00000000E+00  0.00000000E+00
  0.00000000E+00  0.00000000E+00  0.00000000E+00
  0.00000000E+00  0.00000000E+00  0.00000000E+00
  0.00000000E+00  0.00000000E+00  0.00000000E+00
  0.00000000E+00  0.00000000E+00  0.00000000E+00
  0.00000000E+00  0.00000000E+00  0.00000000E+00
  0.00000000E+00  0.00000000E+00  0.00000000E+00
  0.00000000E+00  0.00000000E+00  0.00000000E+00
  0.00000000E+00  0.00000000E+00  0.00000000E+00
  0.00000000E+00  0.00000000E+00  0.00000000E+00
  0.00000000E+00  0.00000000E+00  0.00000000E+00
  0.00000000E+00  0.00000000E+00  0.00000000E+00
  0.00000000E+00  0.00000000E+00  0.00000000E+00
  0.00000000E+00  0.00000000E+00  0.00000000E+00
  0.00000000E+00  0.00000000E+00  0.00000000E+00
  0.00000000E+00  0.00000000E+00  0.00000000E+00
  0.00000000E+00  0.00000000E+00  0.00000000E+00
  0.00000000E+00  0.00000000E+00  0.00000000E+00
  0.00000000E+00  0.00000000E+00  0.00000000E+00
  0.00000000E+00  0.00000000E+00  0.00000000E+00
  0.00000000E+00  0.00000000E+00  0.00000000E+00
  0.00000000E+00  0.00000000E+00  0.00000000E+00
  0.00000000E+00  0.00000000E+00  0.00000000E+00
  0.00000000E+00  0.00000000E+00  0.00000000E+00
  0.00000000E+00  0.00000000E+00  0.00000000E+00
  0.00000000E+00  0.00000000E+00  0.00000000E+00
  0.00000000E+00  0.00000000E+00  0.00000000E+00
  0.00000000E+00  0.00000000E+00  0.00000000E+00
  0.00000000E+00  0.00000000E+00  0.00000000E+00
  0.00000000E+00  0.00000000E+00  0.00000000E+00
  0.00000000E+00  0.00000000E+00  0.00000000E+00
  0.00000000E+00  0.00000000E+00  0.00000000E+00
  0.00000000E+00  0.00000000E+00  0.00000000E+00
  0.00000000E+00  0.00000000E+00  0.00000000E+00
  0.00000000E+00  0.00000000E+00  0.00000000E+00
  0.00000000E+00  0.00000000E+00  0.00000000E+00
  0.00000000E+00  0.00000000E+00  0.00000000E+00
  0.00000000E+00  0.00000000E+00  0.00000000E+00
  0.00000000E+00  0.00000000E+00  0.00000000E+00
  0.00000000E+00  0.00000000E+00  0.00000000E+00
  0.00000000E+00  0.00000000E+00  0.00000000E+00
  0.00000000E+00  0.00000000E+00  0.00000000E+00
  0.00000000E+00  0.00000000E+00  0.00000000E+00
  0.00000000E+00  0.00000000E+00  0.00000000E+00
  0.00000000E+00  0.00000000E+00  0.00000000E+00
  0.00000000E+00  0.00000000E+00  0.00000000E+00
  0.00000000E+00  0.00000000E+00  0.00000000E+00
  0.00000000E+00  0.00000000E+00  0.00000000E+00
  0.00000000E+00  0.00000000E+00  0.00000000E+00
  0.00000000E+00  0.00000000E+00  0.00000000E+00
  0.00000000E+00  0.00000000E+00  0.00000000E+00
  0.00000000E+00  0.00000000E+00  0.00000000E+00
  0.00000000E+00  0.00000000E+00  0.00000000E+00
  0.00000000E+00  0.00000000E+00  0.00000000E+00
  0.00000000E+00  0.00000000E+00  0.00000000E+00
  0.00000000E+00  0.00000000E+00  0.00000000E+00
  0.00000000E+00  0.00000000E+00  0.00000000E+00
  0.00000000E+00  0.00000000E+00  0.00000000E+00
  0.00000000E+00  0.00000000E+00  0.00000000E+00
  0.00000000E+00  0.00000000E+00  0.00000000E+00
  0.00000000E+00  0.00000000E+00  0.00000000E+00
  0.00000000E+00  0.00000000E+00  0.00000000E+00
  0.00000000E+00  0.00000000E+00  0.00000000E+00
  0.00000000E+00  0.00000000E+00  0.00000000E+00
  0.00000000E+00  0.00000000E+00  0.00000000E+00
  0.00000000E+00  0.00000000E+00  0.00000000E+00
  0.00000000E+00  0.00000000E+00  0.00000000E+00
  0.00000000E+00  0.00000000E+00  0.00000000E+00
  0.00000000E+00  0.00000000E+00  0.00000000E+00
  0.00000000E+00  0.00000000E+00  0.00000000E+00
  0.00000000E+00  0.00000000E+00  0.00000000E+00
  0.00000000E+00  0.00000000E+00  0.00000000E+00
  0.00000000E+00  0.00000000E+00  0.00000000E+00
  0.00000000E+00  0.00000000E+00  0.00000000E+00
  0.00000000E+00  0.00000000E+00  0.00000000E+00
  0.00000000E+00  0.00000000E+00  0.00000000E+00
  0.00000000E+00  0.00000000E+00  0.00000000E+00
  0.00000000E+00  0.00000000E+00  0.00000000E+00
  0.00000000E+00  0.00000000E+00  0.00000000E+00
  0.00000000E+00  0.00000000E+00  0.00000000E+00
  0.00000000E+00  0.00000000E+00  0.00000000E+00
  0.00000000E+00  0.00000000E+00  0.00000000E+00
  0.00000000E+00  0.00000000E+00  0.00000000E+00
  0.00000000E+00  0.00000000E+00  0.00000000E+00
  0.00000000E+00  0.00000000E+00  0.00000000E+00
  0.00000000E+00  0.00000000E+00  0.00000000E+00
  0.00000000E+00  0.00000000E+00  0.00000000E+00
  0.00000000E+00  0.00000000E+00  0.00000000E+00
  0.00000000E+00  0.00000000E+00  0.00000000E+00
  0.00000000E+00  0.00000000E+00  0.00000000E+00
  0.00000000E+00  0.00000000E+00  0.00000000E+00
  0.00000000E+00  0.00000000E+00  0.00000000E+00
  0.00000000E+00  0.00000000E+00  0.00000000E+00
  0.00000000E+00  0.00000000E+00  0.00000000E+00
  0.00000000E+00  0.00000000E+00  0.00000000E+00
  0.00000000E+00  0.00000000E+00  0.00000000E+00
  0.00000000E+00  0.00000000E+00  0.00000000E+00
  0.00000000E+00  0.00000000E+00  0.00000000E+00
  0.00000000E+00  0.00000000E+00  0.00000000E+00
  0.00000000E+00  0.00000000E+00  0.00000000E+00
  0.00000000E+00  0.00000000E+00  0.00000000E+00
  0.00000000E+00  0.00000000E+00  0.00000000E+00
  0.00000000E+00  0.00000000E+00  0.00000000E+00
  0.00000000E+00  0.00000000E+00  0.00000000E+00
  0.00000000E+00  0.00000000E+00  0.00000000E+00
  0.00000000E+00  0.00000000E+00  0.00000000E+00
  0.00000000E+00  0.00000000E+00  0.00000000E+00
  0.00000000E+00  0.00000000E+00  0.00000000E+00
  0.00000000E+00  0.00000000E+00  0.00000000E+00
  0.00000000E+00  0.00000000E+00  0.00000000E+00
  0.00000000E+00  0.00000000E+00  0.00000000E+00
  0.00000000E+00  0.00000000E+00  0.00000000E+00
  0.00000000E+00  0.00000000E+00  0.00000000E+00
  0.00000000E+00  0.00000000E+00  0.00000000E+00
  0.00000000E+00  0.00000000E+00  0.00000000E+00
  0.00000000E+00  0.00000000E+00  0.00000000E+00
  0.00000000E+00  0.00000000E+00  0.00000000E+00
  0.00000000E+00  0.00000000E+00  0.00000000E+00
  0.00000000E+00  0.00000000E+00  0.00000000E+00
  0.00000000E+00  0.00000000E+00  0.00000000E+00
  0.00000000E+00  0.00000000E+00  0.00000000E+00
  0.00000000E+00  0.00000000E+00  0.00000000E+00
  0.00000000E+00  0.00000000E+00  0.00000000E+00
  0.00000000E+00  0.00000000E+00  0.00000000E+00
  0.00000000E+00  0.00000000E+00  0.00000000E+00
  0.00000000E+00  0.00000000E+00  0.00000000E+00
  0.00000000E+00  0.00000000E+00  0.00000000E+00
  0.00000000E+00  0.00000000E+00  0.00000000E+00
  0.00000000E+00  0.00000000E+00  0.00000000E+00
  0.00000000E+00  0.00000000E+00  0.00000000E+00
  0.00000000E+00  0.00000000E+00  0.00000000E+00
  0.00000000E+00  0.00000000E+00  0.00000000E+00
  0.00000000E+00  0.00000000E+00  0.00000000E+00
  0.00000000E+00  0.00000000E+00  0.00000000E+00
  0.00000000E+00  0.00000000E+00  0.00000000E+00
  0.00000000E+00  0.00000000E+00  0.00000000E+00
  0.00000000E+00  0.00000000E+00  0.00000000E+00
  0.00000000E+00  0.00000000E+00  0.00000000E+00
  0.00000000E+00  0.00000000E+00  0.00000000E+00
  0.00000000E+00  0.00000000E+00  0.00000000E+00
  0.00000000E+00  0.00000000E+00  0.00000000E+00
  0.00000000E+00  0.00000000E+00  0.00000000E+00
  0.00000000E+00  0.00000000E+00  0.00000000E+00
  0.00000000E+00  0.00000000E+00  0.00000000E+00
  0.00000000E+00  0.00000000E+00  0.00000000E+00
  0.00000000E+00  0.00000000E+00  0.00000000E+00
  0.00000000E+00  0.00000000E+00  0.00000000E+00
  0.00000000E+00  0.00000000E+00  0.00000000E+00
  0.00000000E+00  0.00000000E+00  0.00000000E+00
  0.00000000E+00  0.00000000E+00  0.00000000E+00
  0.00000000E+00  0.00000000E+00  0.00000000E+00
  0.00000000E+00  0.00000000E+00  0.00000000E+00
  0.00000000E+00  0.00000000E+00  0.00000000E+00
  0.00000000E+00  0.00000000E+00  0.00000000E+00
  0.00000000E+00  0.00000000E+00  0.00000000E+00
  0.00000000E+00  0.00000000E+00  0.00000000E+00
  0.00000000E+00  0.00000000E+00  0.00000000E+00
  0.00000000E+00  0.00000000E+00  0.00000000E+00
  0.00000000E+00  0.00000000E+00  0.00000000E+00
  0.00000000E+00  0.00000000E+00  0.00000000E+00
  0.00000000E+00  0.00000000E+00  0.00000000E+00
  0.00000000E+00  0.00000000E+00  0.00000000E+00
  0.00000000E+00  0.00000000E+00  0.00000000E+00
  0.00000000E+00  0.00000000E+00  0.00000000E+00
  0.00000000E+00  0.00000000E+00  0.00000000E+00
  0.00000000E+00  0.00000000E+00  0.00000000E+00
  0.00000000E+00  0.00000000E+00  0.00000000E+00
  0.00000000E+00  0.00000000E+00  0.00000000E+00
  0.00000000E+00  0.00000000E+00  0.00000000E+00
  0.00000000E+00  0.00000000E+00  0.00000000E+00
  0.00000000E+00  0.00000000E+00  0.00000000E+00
  0.00000000E+00  0.00000000E+00  0.00000000E+00
  0.00000000E+00  0.00000000E+00  0.00000000E+00
  0.00000000E+00  0.00000000E+00  0.00000000E+00
  0.00000000E+00  0.00000000E+00  0.00000000E+00
